data;

param n:=24;
param p:=4;
param r:=[1] 0 [2] 0 [3] 5 [4] 4 [5] 15 [6] 13 [7] 13 [8] 4 [9] 3 [10] 6 [11] 14 [12] 13 [13] 44 [14] 15 [15] 54 [16] 51 [17] 64 [18] 59 [19] 12 [20] 71 [21] 23 [22] 62 [23] 47 [24] 24 ;
param w:=[1] 34 [2] 23 [3] 74 [4] 35 [5] 3 [6] 24 [7] 79 [8] 58 [9] 75 [10] 32 [11] 15 [12] 32 [13] 94 [14] 38 [15] 77 [16] 79 [17] 94 [18] 11 [19] 75 [20] 75 [21] 71 [22] 5 [23] 44 [24] 61 ;

end;
